Set parameter TokenServer to value "hpc-licenses.hpcc.usc.edu"
Set parameter TimeLimit to value 3600
Gurobi Optimizer version 9.5.1 build v9.5.1rc2 (linux64)
Thread count: 20 physical cores, 20 logical processors, using up to 20 threads
Optimize a model with 14014 rows, 10581 columns and 61098 nonzeros
Model fingerprint: 0x23f50b88
Variable types: 10514 continuous, 67 integer (67 binary)
Coefficient statistics:
  Matrix range     [1e+00, 1e+00]
  Objective range  [6e-03, 1e+00]
  Bounds range     [1e+00, 1e+00]
  RHS range        [1e+00, 1e+00]
Presolve removed 3086 rows and 3065 columns
Presolve time: 0.21s
Presolved: 10928 rows, 7516 columns, 56261 nonzeros
Variable types: 7456 continuous, 60 integer (60 binary)
Found heuristic solution: objective 280.8404690

Root relaxation: objective 2.914696e+02, 3193 iterations, 0.18 seconds (0.22 work units)

    Nodes    |    Current Node    |     Objective Bounds      |     Work
 Expl Unexpl |  Obj  Depth IntInf | Incumbent    BestBd   Gap | It/Node Time

     0     0  291.46956    0    4  280.84047  291.46956  3.78%     -    0s
     0     0  291.46956    0   11  280.84047  291.46956  3.78%     -    0s
H    0     0                     284.6963798  291.46956  2.38%     -    1s
     0     0  291.46956    0    9  284.69638  291.46956  2.38%     -    1s
     0     0  291.46956    0    7  284.69638  291.46956  2.38%     -    1s
     0     0  291.46956    0    6  284.69638  291.46956  2.38%     -    1s
H    0     0                     289.5896092  291.46956  0.65%     -    1s
     0     0  291.46956    0    4  289.58961  291.46956  0.65%     -    1s
     0     0  291.46956    0    6  289.58961  291.46956  0.65%     -    1s
     0     0  291.45526    0    6  289.58961  291.45526  0.64%     -    1s
     0     0  291.45526    0    6  289.58961  291.45526  0.64%     -    1s
     0     2  291.45526    0    6  289.58961  291.45526  0.64%     -    2s
    29    18  291.44822    6    6  289.58961  291.44822  0.64%   447    5s
   206    38  290.27475   13    4  289.58961  291.40608  0.63%   220   10s
*  434    26              18     289.7470905  291.35320  0.55%   160   14s
*  476    27              19     289.8801042  291.09856  0.42%   155   14s
*  534    11              22     290.1735027  291.09856  0.32%   147   14s
   586     2     cutoff   17       290.17350  291.09608  0.32%   139   15s

Cutting planes:
  MIR: 9
  RLT: 7

Explored 687 nodes (98816 simplex iterations) in 17.37 seconds (5.36 work units)
Thread count was 20 (of 20 available processors)

Solution count 6: 290.174 289.88 289.747 ... 280.84

Optimal solution found (tolerance 1.00e-04)
Best objective 2.901735026992e+02, best bound 2.901735026992e+02, gap 0.0000%



#########node  1
V2.4
#########node  2
V1.6
#########node  3
V1.4
#########node  4
0.0,1.0
#########node  5
1.0,0.0
#########node  6
5.551115123125783e-17,1.0
#########node  7
1.0,0.0


Total Solving Time 18.280649662017822
obj value 290.17350269917836
Policy Regret train (Sum) 0.7966293847953334
Best Treatment Found train (%) 88.8
treatment classification acc train (%) 50.2
Policy Regret test (Sum) 29.928442463581103
Best Treatment Found test (%) 83.38
treatment classification acc test (%) 50.0
Set parameter TokenServer to value "hpc-licenses.hpcc.usc.edu"
Set parameter TimeLimit to value 3600
Gurobi Optimizer version 9.5.1 build v9.5.1rc2 (linux64)
Thread count: 20 physical cores, 20 logical processors, using up to 20 threads
Optimize a model with 14014 rows, 10581 columns and 61098 nonzeros
Model fingerprint: 0x23f50b88
Variable types: 10514 continuous, 67 integer (67 binary)
Coefficient statistics:
  Matrix range     [1e+00, 1e+00]
  Objective range  [6e-03, 1e+00]
  Bounds range     [1e+00, 1e+00]
  RHS range        [1e+00, 1e+00]
Presolve removed 3086 rows and 3065 columns
Presolve time: 0.22s
Presolved: 10928 rows, 7516 columns, 56261 nonzeros
Variable types: 7456 continuous, 60 integer (60 binary)
Found heuristic solution: objective 280.8404690

Root relaxation: objective 2.914696e+02, 3193 iterations, 0.18 seconds (0.22 work units)

    Nodes    |    Current Node    |     Objective Bounds      |     Work
 Expl Unexpl |  Obj  Depth IntInf | Incumbent    BestBd   Gap | It/Node Time

     0     0  291.46956    0    4  280.84047  291.46956  3.78%     -    0s
     0     0  291.46956    0   11  280.84047  291.46956  3.78%     -    0s
H    0     0                     284.6963798  291.46956  2.38%     -    1s
     0     0  291.46956    0    9  284.69638  291.46956  2.38%     -    1s
     0     0  291.46956    0    7  284.69638  291.46956  2.38%     -    1s
     0     0  291.46956    0    6  284.69638  291.46956  2.38%     -    1s
H    0     0                     289.5896092  291.46956  0.65%     -    1s
     0     0  291.46956    0    4  289.58961  291.46956  0.65%     -    1s
     0     0  291.46956    0    6  289.58961  291.46956  0.65%     -    1s
     0     0  291.45526    0    6  289.58961  291.45526  0.64%     -    1s
     0     0  291.45526    0    6  289.58961  291.45526  0.64%     -    1s
     0     2  291.45526    0    6  289.58961  291.45526  0.64%     -    2s
    29    18  291.44822    6    6  289.58961  291.44822  0.64%   447    5s
    99    31  291.40491   10    9  289.58961  291.40608  0.63%   327   10s
   337    30  289.70058   18    2  289.58961  291.40608  0.63%   176   15s
*  434    26              18     289.7470905  291.35320  0.55%   160   16s
*  476    27              19     289.8801042  291.09856  0.42%   155   16s
*  534    11              22     290.1735027  291.09856  0.32%   147   16s

Cutting planes:
  MIR: 9
  RLT: 7

Explored 687 nodes (98816 simplex iterations) in 19.98 seconds (5.36 work units)
Thread count was 20 (of 20 available processors)

Solution count 6: 290.174 289.88 289.747 ... 280.84

Optimal solution found (tolerance 1.00e-04)
Best objective 2.901735026992e+02, best bound 2.901735026992e+02, gap 0.0000%



#########node  1
V2.4
#########node  2
V1.6
#########node  3
V1.4
#########node  4
0.0,1.0
#########node  5
1.0,0.0
#########node  6
5.551115123125783e-17,1.0
#########node  7
1.0,0.0


Total Solving Time 21.0280339717865
obj value 290.17350269917836
Policy Regret train (Sum) 0.7966293847953334
Best Treatment Found train (%) 88.8
treatment classification acc train (%) 50.2
Policy Regret test (Sum) 29.928442463581103
Best Treatment Found test (%) 83.38
treatment classification acc test (%) 50.0
